Solver command line: ['C:\\Program Files\\IBM\\ILOG\\CPLEX_Studio2211\\cplex\\bin\\x64_win64\\cplex.exe']


Welcome to IBM(R) ILOG(R) CPLEX(R) Interactive Optimizer 22.1.1.0
  with Simplex, Mixed Integer & Barrier Optimizers
5725-A06 5725-A29 5724-Y48 5724-Y49 5724-Y54 5724-Y55 5655-Y21
Copyright IBM Corp. 1988, 2022.  All Rights Reserved.

Type 'help' for a list of available commands.
Type 'help' followed by a command name for more
information on commands.

CPLEX> Logfile 'cplex.log' closed.
Logfile 'C:\Users\wangy\Documents\GitHub\re_optimization\result_site_specific\tmpry1q1vn0.cplex.log' open.
CPLEX> Problem 'C:\Users\wangy\Documents\GitHub\re_optimization\result_site_specific\tmpp5xlrh10.pyomo.lp' read.
Read time = 0.19 sec. (6.21 ticks)
CPLEX> Problem name         : C:\Users\wangy\Documents\GitHub\re_optimization\result_site_specific\tmpp5xlrh10.pyomo.lp
Objective sense      : Minimize
Variables            :   43845  [Nneg: 23381,  Free: 4400,  Binary: 4,
                                 Other: 16060]
Objective nonzeros   :      11
Linear constraints   :   64280  [Less: 35051,  Greater: 3,  Equal: 29226]
  Nonzeros           :  154951
  RHS nonzeros       :    3738

Variables            : Min LB: 0.000000         Max UB: 1.000000       
Objective nonzeros   : Min   : 1.000000         Max   : 1.000000       
Linear constraints   :
  Nonzeros           : Min   : 0.002301178      Max   : 100000.0       
  RHS nonzeros       : Min   : 0.05400000       Max   : 1000.000       
CPLEX> Version identifier: 22.1.1.0 | 2022-11-27 | 9160aff4d
Tried aggregator 3 times.
MIP Presolve eliminated 41419 rows and 22440 columns.
Aggregator did 7436 substitutions.
Reduced MIP has 15425 rows, 13969 columns, and 44572 nonzeros.
Reduced MIP has 2 binaries, 0 generals, 0 SOSs, and 0 indicators.
Presolve time = 0.12 sec. (134.90 ticks)
Found incumbent of value 203410.904191 after 0.16 sec. (156.71 ticks)
Probing time = 0.00 sec. (0.85 ticks)
Tried aggregator 1 time.
Detecting symmetries...
Reduced MIP has 15425 rows, 13969 columns, and 44572 nonzeros.
Reduced MIP has 2 binaries, 0 generals, 0 SOSs, and 0 indicators.
Presolve time = 0.01 sec. (26.49 ticks)
Probing time = 0.00 sec. (0.79 ticks)
MIP emphasis: balance optimality and feasibility.
MIP search method: dynamic search.
Parallel mode: deterministic, using up to 16 threads.
Root relaxation solution time = 0.66 sec. (656.87 ticks)

        Nodes                                         Cuts/
   Node  Left     Objective  IInf  Best Integer    Best Bound    ItCnt     Gap

*     0+    0                       203410.9042    -9434.4979           104.64%
*     0+    0                        11359.0791    -9434.4979           183.06%
*     0+    0                         8862.2760    -9434.4979           206.46%
      0     0     8068.7591     1     8862.2760     8068.7591     6870    8.95%
*     0+    0                         8862.2633     8068.7591             8.95%
      0     0        cutoff           8862.2633                   6982    0.00%
Elapsed time = 0.97 sec. (949.29 ticks, tree = 0.01 MB, solutions = 4)

Root node processing (before b&c):
  Real time             =    0.97 sec. (951.67 ticks)
Parallel b&c, 16 threads:
  Real time             =    0.00 sec. (0.00 ticks)
  Sync time (average)   =    0.00 sec.
  Wait time (average)   =    0.00 sec.
                          ------------
Total (root+branch&cut) =    0.97 sec. (951.67 ticks)

Solution pool: 4 solutions saved.

MIP - Integer optimal solution:  Objective =  8.8622632844e+03
Solution time =    0.97 sec.  Iterations = 6982  Nodes = 0
Deterministic time = 951.80 ticks  (982.25 ticks/sec)

CPLEX> Incumbent solution written to file 'C:\Users\wangy\Documents\GitHub\re_optimization\result_site_specific\tmpc9yyz9gy.cplex.sol'.
CPLEX> 
